10
1 0 16
2 0 11
3 1 28
3 2 19
4 0 19
4 1 2
4 2 6
4 3 20
5 1 30
6 0 34
6 1 33
6 3 18
6 4 14
6 5 28
7 1 36
7 3 17
7 4 12
7 5 34
7 6 29
8 0 26
8 2 30
8 3 28
8 4 15
8 6 9
8 7 3
9 0 39
9 3 37
9 4 13
9 7 10
